data;


param d:= 100;
param r:=5;
param p:=0.200000;
param M:=1000;
param U:=
         1         1       -6.471726e-01
         2         1       -1.894105e-01
         3         1       -1.572724e-01
         4         1       -1.434294e+00
         5         1        9.654305e-01
         6         1        1.886632e+00
         7         1       -6.829165e-01
         8         1        1.219745e+00
         9         1        5.079759e-01
        10         1       -5.782510e-01
        11         1        6.238980e-01
        12         1       -1.592146e+00
        13         1       -3.962521e-01
        14         1       -3.068036e-01
        15         1       -1.343662e+00
        16         1        6.003347e-02
        17         1       -2.774448e-01
        18         1       -1.149710e+00
        19         1       -6.202660e-01
        20         1       -1.084623e+00
        21         1        6.325576e-01
        22         1        1.083827e+00
        23         1        7.452372e-01
        24         1        1.173705e+00
        25         1        1.163130e+00
        26         1       -1.045266e+00
        27         1       -1.115109e+00
        28         1       -4.990518e-01
        29         1        2.841080e+00
        30         1        1.213525e+00
        31         1        5.053056e-01
        32         1        1.655196e+00
        33         1        5.878206e-02
        34         1       -3.958185e-01
        35         1       -2.913604e-01
        36         1        4.075487e-01
        37         1        7.104106e-01
        38         1       -3.317330e-01
        39         1       -1.816179e-01
        40         1        2.495619e-01
        41         1       -4.355334e-01
        42         1       -1.184171e+00
        43         1       -5.541424e-01
        44         1        9.684022e-01
        45         1        3.491817e+00
        46         1       -1.054369e+00
        47         1        1.681712e+00
        48         1        6.486781e-01
        49         1        4.906637e-01
        50         1       -1.024148e+00
        51         1        4.172642e-01
        52         1       -1.469586e+00
        53         1        1.316723e+00
        54         1        1.044610e+00
        55         1        7.656574e-01
        56         1       -8.783164e-02
        57         1        7.260336e-01
        58         1        5.486985e-01
        59         1        6.150669e-01
        60         1       -2.195655e+00
        61         1        4.154574e-01
        62         1        1.818641e+00
        63         1       -3.118088e-01
        64         1       -1.087572e+00
        65         1        7.337690e-01
        66         1       -7.573244e-01
        67         1        7.212623e-01
        68         1       -1.275009e+00
        69         1       -2.007738e-01
        70         1       -4.836209e-02
        71         1       -1.134999e+00
        72         1        3.905266e-01
        73         1        1.611138e-01
        74         1        1.659984e+00
        75         1       -7.851154e-01
        76         1       -1.897247e+00
        77         1        1.003322e-01
        78         1        1.055168e-01
        79         1        6.867234e-01
        80         1        4.873804e-01
        81         1        9.835856e-01
        82         1        5.548769e-01
        83         1        2.056135e-01
        84         1        6.039211e-01
        85         1        1.707103e+00
        86         1       -8.104488e-01
        87         1       -9.511641e-01
        88         1       -4.857092e-01
        89         1        1.400151e+00
        90         1        1.081819e+00
        91         1       -9.625245e-01
        92         1       -6.118313e-01
        93         1        2.535920e+00
        94         1        2.724581e+00
        95         1       -1.083662e+00
        96         1        2.164112e+00
        97         1        6.255276e-01
        98         1        4.105148e-01
        99         1       -9.685672e-01
       100         1        3.719732e-01
         1         2       -8.928078e-01
         2         2        9.545342e-01
         3         2        7.247807e-01
         4         2        1.233284e-01
         5         2        1.496549e+00
         6         2       -7.840903e-01
         7         2       -1.272554e+00
         8         2       -3.485064e-01
         9         2       -1.103426e+00
        10         2       -9.943450e-02
        11         2        1.373260e-01
        12         2        4.061951e-01
        13         2        8.741066e-01
        14         2       -5.627061e-01
        15         2       -9.444384e-01
        16         2        2.761828e-01
        17         2        8.792900e-01
        18         2       -5.347721e-01
        19         2       -2.657398e-01
        20         2        1.905299e+00
        21         2       -1.386052e+00
        22         2        4.733304e-01
        23         2       -7.352649e-01
        24         2       -6.052796e-01
        25         2        5.074840e-01
        26         2        1.095942e-01
        27         2        7.398678e-01
        28         2       -1.757893e-01
        29         2       -9.587322e-01
        30         2       -5.778275e-01
        31         2       -3.840468e-01
        32         2        4.098628e-01
        33         2       -8.262986e-01
        34         2        1.746534e-01
        35         2        1.364197e+00
        36         2       -1.364268e+00
        37         2       -4.903373e-01
        38         2       -6.348591e-01
        39         2       -1.252958e+00
        40         2       -6.365732e-01
        41         2       -6.489778e-01
        42         2        1.773148e+00
        43         2       -3.140704e-01
        44         2        1.948019e-01
        45         2       -3.100220e-02
        46         2        4.621199e-01
        47         2        1.414043e+00
        48         2       -1.191269e+00
        49         2        3.731662e-01
        50         2        5.228935e-01
        51         2       -6.010489e-01
        52         2        4.841169e-01
        53         2        3.277466e-01
        54         2        1.537853e+00
        55         2       -4.083472e-01
        56         2       -4.649399e-01
        57         2        2.209316e+00
        58         2       -4.680197e-01
        59         2        2.052280e+00
        60         2        1.056414e+00
        61         2        5.520733e-01
        62         2       -1.023278e+00
        63         2        9.170927e-01
        64         2        1.429752e+00
        65         2       -9.670943e-02
        66         2       -8.364006e-01
        67         2        2.799273e-01
        68         2        2.911148e-01
        69         2        2.127141e+00
        70         2       -1.595958e+00
        71         2       -4.116301e-01
        72         2        9.632752e-01
        73         2        5.583509e-01
        74         2        1.870342e-01
        75         2        1.594917e+00
        76         2       -6.352214e-01
        77         2        4.682626e-01
        78         2       -1.395565e-01
        79         2        6.966454e-01
        80         2       -1.065376e+00
        81         2        5.014657e-01
        82         2        7.193429e-01
        83         2        7.798274e-02
        84         2        3.217869e-01
        85         2       -4.470453e-01
        86         2        7.473344e-01
        87         2        6.736926e-01
        88         2       -3.226174e+00
        89         2       -1.705261e-01
        90         2        3.560993e-01
        91         2       -5.344964e-01
        92         2       -1.071752e+00
        93         2       -2.008925e-01
        94         2        1.862979e+00
        95         2        9.157988e-01
        96         2        4.396408e-01
        97         2        1.290264e+00
        98         2        3.777833e-01
        99         2       -4.873870e-01
       100         2       -1.291802e+00
         1         3        1.019545e+00
         2         3       -5.733206e-01
         3         3       -4.520206e-01
         4         3        5.904848e-01
         5         3       -5.065677e-01
         6         3        1.181403e+00
         7         3        1.516776e+00
         8         3       -1.093429e-01
         9         3       -1.765264e+00
        10         3        1.171538e+00
        11         3        5.067458e-02
        12         3        5.584256e-01
        13         3       -1.519960e+00
        14         3        3.474635e-01
        15         3       -7.210248e-01
        16         3        1.877455e+00
        17         3        9.135667e-01
        18         3       -1.119339e+00
        19         3       -1.265575e+00
        20         3        8.887131e-01
        21         3       -6.181154e-02
        22         3        3.634187e-01
        23         3        7.752239e-01
        24         3       -7.239772e-01
        25         3        8.763558e-01
        26         3       -1.026140e+00
        27         3        1.983423e-01
        28         3       -1.163683e+00
        29         3        1.114140e+00
        30         3        9.616821e-01
        31         3        1.171108e+00
        32         3        1.724905e+00
        33         3        2.582835e-01
        34         3       -1.423260e+00
        35         3        3.174722e-01
        36         3        1.999652e+00
        37         3        2.207250e+00
        38         3        4.477931e-01
        39         3        1.092827e+00
        40         3        9.629915e-02
        41         3       -1.038013e+00
        42         3        7.531824e-01
        43         3        1.501383e-01
        44         3       -7.881639e-01
        45         3       -1.758169e-01
        46         3        5.468116e-01
        47         3       -6.154064e-01
        48         3        2.578207e+00
        49         3       -6.778870e-01
        50         3       -4.405814e-01
        51         3        1.665861e+00
        52         3       -5.615947e-01
        53         3       -1.881489e+00
        54         3        1.324707e+00
        55         3        6.564136e-01
        56         3        1.451321e+00
        57         3       -5.251372e-01
        58         3        2.017837e-01
        59         3       -1.179518e+00
        60         3        9.594102e-01
        61         3        5.771886e-01
        62         3       -6.841539e-01
        63         3       -1.229123e+00
        64         3        9.864267e-01
        65         3       -1.027389e+00
        66         3       -5.496145e-02
        67         3       -4.491110e-01
        68         3       -3.603225e-01
        69         3       -2.111168e+00
        70         3       -7.143801e-01
        71         3        6.797904e-01
        72         3        8.994661e-01
        73         3        1.905639e-01
        74         3        1.463916e+00
        75         3       -7.410156e-01
        76         3        4.389683e-01
        77         3        3.604752e-01
        78         3       -4.034206e-01
        79         3       -1.974033e+00
        80         3       -4.222212e-01
        81         3       -3.090505e-01
        82         3        3.210693e-01
        83         3        1.618244e-01
        84         3        1.384031e+00
        85         3        1.893862e+00
        86         3       -2.480697e+00
        87         3       -1.001731e+00
        88         3       -5.355680e-01
        89         3       -5.093285e-01
        90         3       -5.437098e-01
        91         3        7.155588e-01
        92         3        2.350664e+00
        93         3        4.227402e-01
        94         3       -1.248279e-01
        95         3       -7.989352e-01
        96         3        1.242387e+00
        97         3       -6.436589e-01
        98         3       -5.952710e-01
        99         3       -4.113257e-01
       100         3        2.214665e-01
         1         4       -9.005354e-01
         2         4       -2.176652e+00
         3         4        8.689226e-01
         4         4       -2.330731e+00
         5         4       -4.037204e-01
         6         4        1.035084e-01
         7         4       -1.807977e+00
         8         4        9.063534e-01
         9         4        1.662822e-02
        10         4       -1.574638e+00
        11         4        1.534702e+00
        12         4       -5.088069e-01
        13         4       -2.366341e-02
        14         4        1.964078e-01
        15         4        2.047346e+00
        16         4        3.495923e-01
        17         4        3.477127e-01
        18         4       -1.877790e+00
        19         4        5.397773e-02
        20         4        1.202977e-01
        21         4        9.782663e-01
        22         4       -1.659664e+00
        23         4        5.970803e-03
        24         4        3.555467e-01
        25         4       -1.178068e+00
        26         4       -6.842789e-01
        27         4       -2.556022e-01
        28         4        7.778274e-01
        29         4       -2.175707e+00
        30         4        1.817736e+00
        31         4       -2.045841e+00
        32         4       -1.647776e-01
        33         4       -7.217328e-01
        34         4       -5.469503e-01
        35         4        5.022208e-01
        36         4        8.267422e-01
        37         4       -8.308949e-01
        38         4       -2.968458e-01
        39         4        1.736025e+00
        40         4       -2.339063e+00
        41         4        1.398903e+00
        42         4       -2.002314e+00
        43         4        8.955824e-01
        44         4        1.545211e-01
        45         4       -1.590473e+00
        46         4        5.920869e-01
        47         4       -2.251254e+00
        48         4       -1.135065e+00
        49         4        1.443583e+00
        50         4       -1.926341e+00
        51         4        8.189166e-01
        52         4       -8.082569e-01
        53         4       -8.201922e-01
        54         4        9.521951e-01
        55         4       -8.032682e-01
        56         4       -1.832556e-01
        57         4        9.252862e-02
        58         4       -2.577021e-02
        59         4        4.625962e-01
        60         4       -5.739756e-02
        61         4       -8.220764e-01
        62         4        1.321335e+00
        63         4       -1.055845e+00
        64         4       -6.541944e-01
        65         4       -8.947218e-01
        66         4        2.216718e+00
        67         4       -2.641937e-03
        68         4       -9.493370e-01
        69         4        6.175790e-01
        70         4       -1.286465e-02
        71         4        3.916790e-03
        72         4       -6.541024e-02
        73         4        4.003570e-01
        74         4       -3.425348e-01
        75         4        1.690081e-01
        76         4        1.459406e-01
        77         4        1.297267e-01
        78         4        4.782036e-02
        79         4        6.987728e-01
        80         4        1.044223e+00
        81         4        9.243192e-01
        82         4       -3.219301e-01
        83         4        4.703671e-01
        84         4       -8.675783e-01
        85         4        2.664446e-02
        86         4        3.631704e-01
        87         4       -1.546196e+00
        88         4        5.584467e-01
        89         4       -1.626300e+00
        90         4       -1.444264e+00
        91         4       -1.377081e+00
        92         4        3.473609e-01
        93         4        5.455894e-01
        94         4        3.858705e-01
        95         4       -9.351287e-01
        96         4       -2.840015e-01
        97         4        4.672030e-01
        98         4        1.184924e+00
        99         4        4.968053e-01
       100         4       -1.205392e-01
         1         5       -6.811008e-01
         2         5       -1.918402e+00
         3         5        4.568509e-01
         4         5       -1.672369e+00
         5         5       -2.906573e-01
         6         5        4.188380e-01
         7         5        1.665478e+00
         8         5       -2.728630e-01
         9         5       -5.616363e-01
        10         5        6.655606e-01
        11         5       -3.775340e-01
        12         5        6.139334e-01
        13         5       -5.610161e-01
        14         5        1.468633e+00
        15         5        4.367730e-01
        16         5        3.788687e-02
        17         5        1.518282e+00
        18         5        3.657684e-01
        19         5        8.306135e-01
        20         5        8.045774e-01
        21         5       -2.627410e-01
        22         5        4.540720e-01
        23         5       -6.040072e-01
        24         5       -9.854230e-01
        25         5        9.324981e-01
        26         5       -1.815864e+00
        27         5        6.243824e-01
        28         5        4.838566e-01
        29         5        3.540472e-01
        30         5       -2.655985e-01
        31         5        6.687856e-01
        32         5       -7.783911e-02
        33         5        4.253176e-01
        34         5       -8.330757e-02
        35         5       -1.558949e-01
        36         5       -3.973753e-01
        37         5       -2.218111e-01
        38         5        3.798650e-01
        39         5        3.446312e-01
        40         5        6.465577e-01
        41         5        1.253392e+00
        42         5       -4.060866e-01
        43         5        1.631431e-01
        44         5        3.522376e-01
        45         5       -1.487198e+00
        46         5        9.661909e-02
        47         5       -5.876506e-02
        48         5       -8.741446e-01
        49         5        1.804892e+00
        50         5       -2.314655e+00
        51         5       -1.892837e-01
        52         5        1.515167e+00
        53         5       -1.716466e+00
        54         5       -5.100160e-01
        55         5       -1.445605e-01
        56         5       -2.722176e-01
        57         5        1.044776e+00
        58         5       -9.127473e-01
        59         5        1.530614e-01
        60         5        1.195083e-01
        61         5        1.176375e-01
        62         5        2.791594e+00
        63         5       -5.350682e-01
        64         5        1.489907e+00
        65         5       -1.382141e-01
        66         5        8.197475e-01
        67         5        2.193283e+00
        68         5       -2.923181e-01
        69         5        5.094843e-01
        70         5       -1.402491e+00
        71         5        1.904756e+00
        72         5        2.049116e+00
        73         5       -1.789412e+00
        74         5        5.132752e-01
        75         5        1.194932e+00
        76         5        1.331605e+00
        77         5        6.430311e-01
        78         5       -1.670806e-01
        79         5        3.446884e-01
        80         5       -9.439166e-01
        81         5        2.575692e-01
        82         5        6.777472e-01
        83         5       -3.148715e-01
        84         5       -5.819516e-03
        85         5       -1.537447e-01
        86         5       -4.601638e-01
        87         5        5.685905e-01
        88         5       -1.516886e+00
        89         5       -1.491166e+00
        90         5       -1.904925e+00
        91         5        6.679066e-02
        92         5       -1.154801e+00
        93         5       -4.572519e-01
        94         5        1.307047e+00
        95         5       -1.084865e+00
        96         5       -6.038411e-01
        97         5       -1.081301e+00
        98         5       -7.508390e-01
        99         5        2.128434e-01
       100         5        1.976015e+00
;

param theta:=
    1        8.842863e-02
    2       -1.139173e+00
    3       -3.259052e-01
    4        1.162378e-01
    5        1.244650e-01
;
param X_true:=
    1        4.381096e-01
    2       -1.409064e+00
    3       -5.343786e-01
    4       -9.388376e-01
    5       -1.537468e+00
    6        7.391837e-01
    7        8.920830e-01
    8        6.118955e-01
    9        1.809250e+00
   10       -4.198647e-01
   11        1.361785e-02
   12       -7.682410e-01
   13       -6.080135e-01
   14        7.062728e-01
   15        1.484388e+00
   16       -8.758324e-01
   17       -1.094543e+00
   18        6.995843e-01
   19        7.699885e-01
   20       -2.441888e+00
   21        1.736044e+00
   22       -6.982036e-01
   23        5.763611e-01
   24        9.479326e-01
   25       -7.817397e-01
   26       -1.884043e-01
   27       -9.580828e-01
   28        6.860103e-01
   29        7.714577e-01
   30        6.303707e-01
   31       -5.405454e-02
   32       -9.115350e-01
   33        8.313638e-01
   34        1.559406e-01
   35       -1.644314e+00
   36        9.851188e-01
   37       -2.221436e-01
   38        5.607169e-01
   39        1.299805e+00
   40        5.244373e-01
   41        1.357687e+00
   42       -2.653391e+00
   43        3.842538e-01
   44        1.823906e-01
   45        3.141595e-02
   46       -7.170312e-01
   47       -1.530559e+00
   48        3.334341e-01
   49        2.316596e-01
   50       -1.054650e+00
   51        2.503139e-01
   52       -4.037845e-01
   53        4.728542e-02
   54       -2.044035e+00
   55        2.075927e-01
   56       -6.295682e-03
   57       -2.140653e+00
   58        3.993131e-01
   59       -1.826280e+00
   60       -1.702071e+00
   61       -8.611921e-01
   62        2.050525e+00
   63       -8.610489e-01
   64       -1.936990e+00
   65        3.886830e-01
   66        1.263445e+00
   67        1.639420e-01
   68       -4.736787e-01
   69       -1.617697e+00
   70        1.870559e+00
   71        3.845350e-01
   72       -1.108504e+00
   73       -8.600996e-01
   74       -5.193026e-01
   75       -1.476440e+00
   76        5.954961e-01
   77       -5.469266e-01
   78        2.845494e-01
   79        3.459945e-02
   80        1.398244e+00
   81       -2.440588e-01
   82       -8.280919e-01
   83       -1.079092e-01
   84       -8.657996e-01
   85        2.696070e-02
   86       -1.295982e-01
   87       -6.340502e-01
   88        3.682879e+00
   89        1.094294e-01
   90       -5.377718e-01
   91        1.388091e-01
   92        2.973582e-01
   93        3.218323e-01
   94       -1.633108e+00
   95       -1.122428e+00
   96       -8.225266e-01
   97       -1.285025e+00
   98       -1.557776e-01
   99        6.878614e-01
  100        1.664236e+00
;
param X:=
    1       -1.808797e-01
    2       -6.341243e-01
    3       -5.343786e-01
    4       -5.341333e-01
    5        1.248608e+00
    6        7.391837e-01
    7        8.920830e-01
    8        6.118955e-01
    9        1.180562e+00
   10       -4.198647e-01
   11        1.361785e-02
   12       -7.682410e-01
   13       -5.159988e-01
   14        7.062728e-01
   15        1.484388e+00
   16       -8.758324e-01
   17       -1.094543e+00
   18        6.995843e-01
   19        7.699885e-01
   20       -2.441888e+00
   21       -1.064990e+00
   22       -6.982036e-01
   23        5.763611e-01
   24        1.280262e+00
   25       -7.817397e-01
   26       -1.884043e-01
   27       -9.580828e-01
   28        6.860103e-01
   29        7.714577e-01
   30        6.303707e-01
   31       -5.405454e-02
   32       -9.115350e-01
   33        6.819396e-01
   34        1.559406e-01
   35       -1.644314e+00
   36        9.851188e-01
   37       -2.221436e-01
   38       -5.222003e-01
   39        1.299805e+00
   40       -7.683756e-01
   41        1.357687e+00
   42       -2.653391e+00
   43       -1.624994e+00
   44        1.823906e-01
   45        3.141595e-02
   46       -7.170312e-01
   47       -1.530559e+00
   48        3.334341e-01
   49        2.316596e-01
   50       -1.054650e+00
   51        2.503139e-01
   52       -4.037845e-01
   53        4.728542e-02
   54        7.061986e-01
   55        2.075927e-01
   56       -6.295682e-03
   57       -2.140653e+00
   58        1.208350e+00
   59       -1.826280e+00
   60       -1.702071e+00
   61       -8.611921e-01
   62        1.314419e+00
   63       -8.610489e-01
   64       -1.936990e+00
   65        3.886830e-01
   66        1.263445e+00
   67        1.639420e-01
   68       -4.736787e-01
   69       -1.617697e+00
   70        1.870559e+00
   71        3.845350e-01
   72        4.611830e-01
   73       -8.600996e-01
   74       -5.193026e-01
   75       -1.476440e+00
   76       -2.317981e+00
   77       -5.469266e-01
   78        2.845494e-01
   79        3.459945e-02
   80        1.398244e+00
   81       -2.440588e-01
   82       -8.280919e-01
   83       -1.079092e-01
   84       -8.657996e-01
   85        2.696070e-02
   86       -1.295982e-01
   87       -6.340502e-01
   88        3.682879e+00
   89        1.094294e-01
   90        1.049252e+00
   91        1.388091e-01
   92        2.973582e-01
   93        3.218323e-01
   94        1.083670e-01
   95       -1.122428e+00
   96        1.736776e+00
   97       -1.285025e+00
   98       -1.557776e-01
   99        6.878614e-01
  100        1.664236e+00
;
param outliervec:=
    1    1
    2    1
    3    0
    4    1
    5    1
    6    0
    7    0
    8    0
    9    1
   10    0
   11    0
   12    0
   13    1
   14    0
   15    0
   16    0
   17    0
   18    0
   19    0
   20    0
   21    1
   22    0
   23    0
   24    1
   25    0
   26    0
   27    0
   28    0
   29    0
   30    0
   31    0
   32    0
   33    1
   34    0
   35    0
   36    0
   37    0
   38    1
   39    0
   40    1
   41    0
   42    0
   43    1
   44    0
   45    0
   46    0
   47    0
   48    0
   49    0
   50    0
   51    0
   52    0
   53    0
   54    1
   55    0
   56    0
   57    0
   58    1
   59    0
   60    0
   61    0
   62    1
   63    0
   64    0
   65    0
   66    0
   67    0
   68    0
   69    0
   70    0
   71    0
   72    1
   73    0
   74    0
   75    0
   76    1
   77    0
   78    0
   79    0
   80    0
   81    0
   82    0
   83    0
   84    0
   85    0
   86    0
   87    0
   88    0
   89    0
   90    1
   91    0
   92    0
   93    0
   94    1
   95    0
   96    1
   97    0
   98    0
   99    0
  100    0
;